Gurobi Optimizer version 9.1.2 build v9.1.2rc0 (linux64)
Thread count: 36 physical cores, 72 logical processors, using up to 32 threads
Optimize a model with 12 rows, 57 columns and 590 nonzeros
Model fingerprint: 0xf32eec78
Model has 47 quadratic constraints
Coefficient statistics:
  Matrix range     [2e-05, 3e+00]
  QMatrix range    [1e+00, 1e+00]
  QLMatrix range   [1e+00, 1e+00]
  Objective range  [8e-03, 7e-01]
  Bounds range     [1e+00, 1e+00]
  RHS range        [1e+00, 1e+00]
Presolve removed 9 rows and 0 columns

Continuous model is non-convex -- solving as a MIP.

Presolve removed 9 rows and 0 columns
Presolve time: 0.00s
Presolved: 189 rows, 57 columns, 443 nonzeros
Presolved model has 47 bilinear constraint(s)
Variable types: 57 continuous, 0 integer (0 binary)

Root relaxation: objective -1.743721e+00, 44 iterations, 0.00 seconds

    Nodes    |    Current Node    |     Objective Bounds      |     Work
 Expl Unexpl |  Obj  Depth IntInf | Incumbent    BestBd   Gap | It/Node Time

     0     0   -1.74372    0   38          -   -1.74372      -     -    0s
H    0     0                       0.6147548   -1.74372   384%     -    0s
     0     0   -1.64739    0    1    0.61475   -1.64739   368%     -    0s
H    0     0                      -1.6450460   -1.64739  0.14%     -    0s
     0     0     cutoff    0        -1.64505   -1.64505  0.00%     -    0s

Cutting planes:
  RLT: 25
  BQP: 3

Explored 1 nodes (76 simplex iterations) in 0.01 seconds
Thread count was 32 (of 72 available processors)

Solution count 2: -1.64505 0.614755 
No other solutions better than -1.64505

Optimal solution found (tolerance 1.00e-04)
Best objective -1.645045978473e+00, best bound -1.645045978473e+00, gap 0.0000%

User-callback calls 78, time in user-callback 0.00 sec
Gurobi Optimizer version 9.1.2 build v9.1.2rc0 (linux64)
Thread count: 36 physical cores, 72 logical processors, using up to 32 threads
Optimize a model with 60 rows, 312 columns and 16100 nonzeros
Model fingerprint: 0x496d3451
Model has 262 quadratic constraints
Coefficient statistics:
  Matrix range     [4e-07, 7e+00]
  QMatrix range    [1e+00, 1e+00]
  QLMatrix range   [1e+00, 1e+00]
  Objective range  [4e-03, 1e+00]
  Bounds range     [1e+00, 1e+00]
  RHS range        [1e+00, 1e+00]
Presolve removed 15 rows and 0 columns

Continuous model is non-convex -- solving as a MIP.

Presolve removed 15 rows and 0 columns
Presolve time: 0.01s
Presolved: 1081 rows, 312 columns, 13447 nonzeros
Presolved model has 262 bilinear constraint(s)
Variable types: 312 continuous, 0 integer (0 binary)

Root relaxation: objective -2.421524e+01, 328 iterations, 0.02 seconds

    Nodes    |    Current Node    |     Objective Bounds      |     Work
 Expl Unexpl |  Obj  Depth IntInf | Incumbent    BestBd   Gap | It/Node Time

     0     0  -24.21524    0  160          -  -24.21524      -     -    0s
     0     0  -23.02448    0   86          -  -23.02448      -     -    0s
     0     0  -22.99413    0   86          -  -22.99413      -     -    0s
     0     0  -22.94079    0   78          -  -22.94079      -     -    0s
     0     0  -22.93449    0   78          -  -22.93449      -     -    0s
     0     0  -22.89309    0   86          -  -22.89309      -     -    0s
     0     0  -22.89207    0   78          -  -22.89207      -     -    0s
     0     0  -22.89126    0   78          -  -22.89126      -     -    0s
     0     0  -22.89005    0   78          -  -22.89005      -     -    0s
     0     0  -22.88950    0   78          -  -22.88950      -     -    0s
     0     0  -22.88876    0   78          -  -22.88876      -     -    0s
     0     0  -22.88860    0   78          -  -22.88860      -     -    0s
     0     0  -22.88831    0   78          -  -22.88831      -     -    0s
H    0     0                     -20.6137452  -22.88831  11.0%     -    0s
     0     2  -22.88831    0   78  -20.61375  -22.88831  11.0%     -    0s
* 1593  1382              65     -20.6208852  -21.84608  5.94%  61.4    1s
* 1597  1382              68     -20.6212182  -21.84608  5.94%  61.3    1s
* 1598  1382              68     -20.6212255  -21.84608  5.94%  61.2    1s
* 1599  1382              67     -20.6212313  -21.84608  5.94%  61.2    1s
* 1855  1653              97     -20.8090770  -21.84608  4.98%  57.0    2s
* 2182  1780              51     -21.3229863  -21.82471  2.35%  53.3    2s
* 2578  1735              54     -21.3525293  -21.82471  2.21%  53.2    2s
* 2579  1735              54     -21.3525295  -21.82471  2.21%  53.2    2s
* 5286  1789              55     -21.3527544  -21.59372  1.13%  48.3    3s
* 5538  1779              58     -21.3632789  -21.59372  1.08%  47.8    3s
* 6318  1748              65     -21.3642646  -21.54277  0.84%  46.7    4s
* 6434  1748              52     -21.3643920  -21.54277  0.83%  46.5    4s
* 6437  1748              52     -21.3644023  -21.54277  0.83%  46.5    4s
* 6909  1752              56     -21.3697123  -21.53251  0.76%  45.9    4s
* 6910  1752              56     -21.3706004  -21.53251  0.76%  45.9    4s
* 7145  1752              53     -21.3710823  -21.53251  0.76%  45.5    4s
* 7146  1752              53     -21.3710969  -21.53251  0.76%  45.5    4s
* 8706  1764              45     -21.3712079  -21.48049  0.51%  44.0    4s
  8754  1744     cutoff   17       -21.37121  -21.47662  0.49%  43.9    5s
* 9298  1766              55     -21.3712746  -21.46116  0.42%  43.4    5s
* 9726  1776              55     -21.3713194  -21.46116  0.42%  43.1    5s
*10119  1783              44     -21.3717758  -21.45549  0.39%  42.7    5s
*11162  1804              42     -21.3718141  -21.44929  0.36%  41.5    5s
*11163  1804              41     -21.3719034  -21.44929  0.36%  41.5    5s
*11902  1796              56     -21.3719734  -21.44078  0.32%  41.2    6s
*11903  1796              56     -21.3719809  -21.44078  0.32%  41.2    6s
*12532  1852              51     -21.3720481  -21.43717  0.30%  40.7    6s
*12535  1852              51     -21.3720490  -21.43717  0.30%  40.7    6s
*12908  1844              50     -21.3726144  -21.43480  0.29%  40.4    6s
*12911  1844              50     -21.3726369  -21.43480  0.29%  40.3    6s
*13563  1923              49     -21.3726557  -21.43175  0.28%  39.8    6s
*13654  1861              70     -21.3754307  -21.43175  0.26%  39.7    6s
*13655  1861              69     -21.3755189  -21.43175  0.26%  39.7    6s
*13656  1861              68     -21.3755526  -21.43175  0.26%  39.7    6s
*14880  1895              49     -21.3762213  -21.42501  0.23%  38.7    6s
*14881  1895              49     -21.3762249  -21.42501  0.23%  38.7    6s
*15781  1870              53     -21.3780011  -21.42086  0.20%  38.1    6s
*17636  1975              56     -21.3780092  -21.41285  0.16%  37.1    7s
*17640  1975              56     -21.3780099  -21.41285  0.16%  37.1    7s
*17675  1820              57     -21.3801303  -21.41284  0.15%  37.1    7s
*17676  1820              57     -21.3801312  -21.41284  0.15%  37.1    7s
*18396  1804              64     -21.3840991  -21.41026  0.12%  36.7    7s
*18806  1688              62     -21.3842506  -21.40884  0.11%  36.4    7s
*18807  1688              62     -21.3842532  -21.40884  0.11%  36.4    7s
*19644  1688              63     -21.3843599  -21.40836  0.11%  35.8    7s
*19842  1713              49     -21.3844799  -21.40637  0.10%  35.7    7s
*19843  1713              49     -21.3844802  -21.40637  0.10%  35.7    7s
*19845  1713              49     -21.3844956  -21.40637  0.10%  35.7    7s
*19846  1713              49     -21.3844986  -21.40637  0.10%  35.7    7s
*19847  1713              47     -21.3846662  -21.40637  0.10%  35.7    7s
*20854  1835              49     -21.3846825  -21.40372  0.09%  35.0    8s
*20855  1835              49     -21.3846952  -21.40372  0.09%  35.0    8s
*20857  1835              49     -21.3847945  -21.40372  0.09%  35.0    8s
*20858  1835              49     -21.3847974  -21.40372  0.09%  35.0    8s
*21751  1835              47     -21.3848002  -21.40213  0.08%  34.4    8s
*21883  2042              53     -21.3849606  -21.40099  0.07%  34.3    8s
*21885  2042              54     -21.3849630  -21.40099  0.07%  34.3    8s
*21997  2042              55     -21.3855832  -21.40065  0.07%  34.2    8s
 27491   670     cutoff   28       -21.38558  -21.40065  0.07%  35.0   10s
*33172  1310              65     -21.3876389  -21.40065  0.06%  33.8   11s
*39895  1537              66     -21.3878001  -21.40065  0.06%  32.0   12s
*39897  1537              67     -21.3878006  -21.40065  0.06%  32.0   12s
*46909  1667              70     -21.3878087  -21.40065  0.06%  29.8   13s
*56850  1187              67     -21.3878124  -21.39054  0.01%  26.9   14s
 57565  1074  -21.38799   49   21  -21.38781  -21.39005  0.01%  26.7   15s

Explored 59950 nodes (1564889 simplex iterations) in 15.33 seconds
Thread count was 32 (of 72 available processors)

Solution count 10: -21.3878 -21.3878 -21.3878 ... -21.3848

Optimal solution found (tolerance 1.00e-04)
Best objective -2.138781239898e+01, best bound -2.138922697199e+01, gap 0.0066%

User-callback calls 121146, time in user-callback 0.03 sec



objective value: -21.38781239898122
objective bound: -21.389226971992223
x_opt: [0.9558122075921164, 0.967552038436281, 0.0, 0.4987008741788686, 0.0, 0.0, 1.0, 0.0, 0.0, 0.0, 1.0, 0.0, 1.0, 1.0, 0.5589575441783411, 1.0, 0.0, 1.0, 0.0, 0.0, 0.4403261571417779, 0.22547862863222395, 0.0, 0.5767166239925114, 0.0, 0.8345089701985549, 0.0, 1.0, 0.0, 0.0, 1.0, 1.0, 0.0, 0.4789819923762033, 1.0, 0.9864272831651558, 0.0, 1.0, 0.0, 1.0, 1.0, 0.0, 1.0, 0.060689233141279685, 0.0, 0.0, 0.5379679786895392, 0.4688710902609349, 0.37940187480369203, 0.0]
GUROBI solution time: 15.32873797416687




